\Generated by Cardinal Operations

Maximize
   1656.11 x_CA7:40_f + 476.24 x_CA7:40_l + 1484.6 x_CB7:40_f 
   + 450.8 x_CB7:40_l + 1443.6 x_BA9:05_f + 424.67 x_BA9:05_l 
   + 1489.26 x_BC9:05_f + 443.62 x_BC9:05_l + 886.96 x_CB10:45_f 
   + 263.88 x_CB10:45_l + 1464.07 x_AB11:20_f + 441.88 x_AB11:20_l 
   + 873.59 x_BC11:20_f + 269.24 x_BC11:20_l + 1479.64 x_BA12:25_f 
   + 470.28 x_BA12:25_l + 1520.65 x_BC12:25_f 
   + 596.4400000000001 x_BC12:25_l + 883.77 x_CB12:35_f 
   + 299.39 x_CB12:35_l + 1467.29 x_AB12:40_f + 505.8 x_AB12:40_l 
   + 856.66 x_AB12:55_f + 279.25 x_AB12:55_l + 1663.16 x_AC13:05_f 
   + 565.96 x_AC13:05_l + 1477.78 x_AB13:55_f + 464.67 x_AB13:55_l 
   + 1638.05 x_CA14:15_f + 531.5 x_CA14:15_l + 1510.9 x_CB14:15_f 
   + 496.51 x_CB14:15_l + 1480.24 x_BA14:25_f + 470.65 x_BA14:25_l 
   + 1521.05 x_BC14:25_f + 821.73 x_BC14:25_l + 1475.99 x_BA15:40_f 
   + 444.2 x_BA15:40_l + 1544.13 x_BC15:40_f + 483.3 x_BC15:40_l 
Subject To
 capacity_constraint_CA7:40: 3 x_CA7:40_f + x_CA7:40_l <= 187
 balance_constraint_CA7:40: 1.72 x_CA7:40_0 + 0.97 x_CA7:40_f 
   + 0.97 x_CA7:40_l <= 158.71
 M_constraint_CA7:40_0: - 10000 y_CA7:40 + x_CA7:40_0 <= 0
 M_constraint_CA7:40_f: - 10000 y_CA7:40 + x_CA7:40_f <= 0
 M_constraint_CA7:40_l: - 10000 y_CA7:40 + x_CA7:40_l <= 0
 scale_constraint_CA7:40_f: 2.16 x_CA7:40_0 - 1.2 x_CA7:40_f >= 0
 scale_constraint_CA7:40_l: 1.127 x_CA7:40_0 - 1.2 x_CA7:40_l >= 0
 capacity_constraint_CB7:40: 3 x_CB7:40_f + x_CB7:40_l <= 187
 balance_constraint_CB7:40: 1.72 x_CB7:40_0 + 0.97 x_CB7:40_f 
   + 0.97 x_CB7:40_l <= 26.89
 M_constraint_CB7:40_0: - 10000 y_CB7:40 + x_CB7:40_0 <= 0
 M_constraint_CB7:40_f: - 10000 y_CB7:40 + x_CB7:40_f <= 0
 M_constraint_CB7:40_l: - 10000 y_CB7:40 + x_CB7:40_l <= 0
 scale_constraint_CB7:40_f: 2.16 x_CB7:40_0 - 1.2 x_CB7:40_f >= 0
 scale_constraint_CB7:40_l: 1.127 x_CB7:40_0 - 1.2 x_CB7:40_l >= 0
 capacity_constraint_BA9:05: 3 x_BA9:05_f + x_BA9:05_l <= 187
 balance_constraint_BA9:05: 3.7 x_BA9:05_0 + 0.9 x_BA9:05_f 
   + 0.9 x_BA9:05_l <= 166.14
 M_constraint_BA9:05_0: - 10000 y_BA9:05 + x_BA9:05_0 <= 0
 M_constraint_BA9:05_f: - 10000 y_BA9:05 + x_BA9:05_f <= 0
 M_constraint_BA9:05_l: - 10000 y_BA9:05 + x_BA9:05_l <= 0
 scale_constraint_BA9:05_f: 1.864 x_BA9:05_0 - 2 x_BA9:05_f >= 0
 scale_constraint_BA9:05_l: x_BA9:05_0 - 2 x_BA9:05_l >= 0
 capacity_constraint_BC9:05: 3 x_BC9:05_f + x_BC9:05_l <= 187
 balance_constraint_BC9:05: 3.7 x_BC9:05_0 + 0.9 x_BC9:05_f 
   + 0.9 x_BC9:05_l <= 20.73
 M_constraint_BC9:05_0: - 10000 y_BC9:05 + x_BC9:05_0 <= 0
 M_constraint_BC9:05_f: - 10000 y_BC9:05 + x_BC9:05_f <= 0
 M_constraint_BC9:05_l: - 10000 y_BC9:05 + x_BC9:05_l <= 0
 scale_constraint_BC9:05_f: 1.864 x_BC9:05_0 - 2 x_BC9:05_f >= 0
 scale_constraint_BC9:05_l: x_BC9:05_0 - 2 x_BC9:05_l >= 0
 capacity_constraint_CB10:45: 3 x_CB10:45_f + x_CB10:45_l <= 187
 balance_constraint_CB10:45: 1.72 x_CB10:45_0 + 0.97 x_CB10:45_f 
   + 0.97 x_CB10:45_l <= 143.36
 M_constraint_CB10:45_0: - 10000 y_CB10:45 + x_CB10:45_0 <= 0
 M_constraint_CB10:45_f: - 10000 y_CB10:45 + x_CB10:45_f <= 0
 M_constraint_CB10:45_l: - 10000 y_CB10:45 + x_CB10:45_l <= 0
 scale_constraint_CB10:45_f: 1.916 x_CB10:45_0 - 1.2 x_CB10:45_f >= 0
 scale_constraint_CB10:45_l: x_CB10:45_0 - 1.2 x_CB10:45_l >= 0
 capacity_constraint_AB11:20: 3 x_AB11:20_f + x_AB11:20_l <= 187
 balance_constraint_AB11:20: 4.92 x_AB11:20_0 + 0.72 x_AB11:20_f 
   + 0.72 x_AB11:20_l <= 179.35
 M_constraint_AB11:20_0: - 10000 y_AB11:20 + x_AB11:20_0 <= 0
 M_constraint_AB11:20_f: - 10000 y_AB11:20 + x_AB11:20_f <= 0
 M_constraint_AB11:20_l: - 10000 y_AB11:20 + x_AB11:20_l <= 0
 scale_constraint_AB11:20_f: 2.05 x_AB11:20_0 - 0.9 x_AB11:20_f >= 0
 scale_constraint_AB11:20_l: x_AB11:20_0 - 0.9 x_AB11:20_l >= 0
 capacity_constraint_BC11:20: 3 x_BC11:20_f + x_BC11:20_l <= 187
 balance_constraint_BC11:20: 3.7 x_BC11:20_0 + 0.9 x_BC11:20_f 
   + 0.9 x_BC11:20_l <= 147.64
 M_constraint_BC11:20_0: - 10000 y_BC11:20 + x_BC11:20_0 <= 0
 M_constraint_BC11:20_f: - 10000 y_BC11:20 + x_BC11:20_f <= 0
 M_constraint_BC11:20_l: - 10000 y_BC11:20 + x_BC11:20_l <= 0
 scale_constraint_BC11:20_f: 1.864 x_BC11:20_0 - 2 x_BC11:20_f >= 0
 scale_constraint_BC11:20_l: x_BC11:20_0 - 2 x_BC11:20_l >= 0
 capacity_constraint_BA12:25: 3 x_BA12:25_f + x_BA12:25_l <= 187
 balance_constraint_BA12:25: 3.7 x_BA12:25_0 + 0.9 x_BA12:25_f 
   + 0.9 x_BA12:25_l <= 127.15
 M_constraint_BA12:25_0: - 10000 y_BA12:25 + x_BA12:25_0 <= 0
 M_constraint_BA12:25_f: - 10000 y_BA12:25 + x_BA12:25_f <= 0
 M_constraint_BA12:25_l: - 10000 y_BA12:25 + x_BA12:25_l <= 0
 scale_constraint_BA12:25_f: 3.079 x_BA12:25_0 - 2 x_BA12:25_f >= 0
 scale_constraint_BA12:25_l: 1.652 x_BA12:25_0 - 2 x_BA12:25_l >= 0
 capacity_constraint_BC12:25: 3 x_BC12:25_f + x_BC12:25_l <= 187
 balance_constraint_BC12:25: 3.7 x_BC12:25_0 + 0.9 x_BC12:25_f 
   + 0.9 x_BC12:25_l <= 39.79
 M_constraint_BC12:25_0: - 10000 y_BC12:25 + x_BC12:25_0 <= 0
 M_constraint_BC12:25_f: - 10000 y_BC12:25 + x_BC12:25_f <= 0
 M_constraint_BC12:25_l: - 10000 y_BC12:25 + x_BC12:25_l <= 0
 scale_constraint_BC12:25_f: 3.079 x_BC12:25_0 - 2 x_BC12:25_f >= 0
 scale_constraint_BC12:25_l: 1.652 x_BC12:25_0 - 2 x_BC12:25_l >= 0
 capacity_constraint_CB12:35: 3 x_CB12:35_f + x_CB12:35_l <= 187
 balance_constraint_CB12:35: 1.72 x_CB12:35_0 + 0.97 x_CB12:35_f 
   + 0.97 x_CB12:35_l <= 176.5
 M_constraint_CB12:35_0: - 10000 y_CB12:35 + x_CB12:35_0 <= 0
 M_constraint_CB12:35_f: - 10000 y_CB12:35 + x_CB12:35_f <= 0
 M_constraint_CB12:35_l: - 10000 y_CB12:35 + x_CB12:35_l <= 0
 scale_constraint_CB12:35_f: 2.826 x_CB12:35_0 - 1.2 x_CB12:35_f >= 0
 scale_constraint_CB12:35_l: 1.475 x_CB12:35_0 - 1.2 x_CB12:35_l >= 0
 capacity_constraint_AB12:40: 3 x_AB12:40_f + x_AB12:40_l <= 187
 balance_constraint_AB12:40: 4.92 x_AB12:40_0 + 0.72 x_AB12:40_f 
   + 0.72 x_AB12:40_l <= 112.36
 M_constraint_AB12:40_0: - 10000 y_AB12:40 + x_AB12:40_0 <= 0
 M_constraint_AB12:40_f: - 10000 y_AB12:40 + x_AB12:40_f <= 0
 M_constraint_AB12:40_l: - 10000 y_AB12:40 + x_AB12:40_l <= 0
 scale_constraint_AB12:40_f: 2.803 x_AB12:40_0 - 0.9 x_AB12:40_f >= 0
 scale_constraint_AB12:40_l: 1.367 x_AB12:40_0 - 0.9 x_AB12:40_l >= 0
 capacity_constraint_AB12:55: 3 x_AB12:55_f + x_AB12:55_l <= 187
 balance_constraint_AB12:55: 4.92 x_AB12:55_0 + 0.72 x_AB12:55_f 
   + 0.72 x_AB12:55_l <= 151.72
 M_constraint_AB12:55_0: - 10000 y_AB12:55 + x_AB12:55_0 <= 0
 M_constraint_AB12:55_f: - 10000 y_AB12:55 + x_AB12:55_f <= 0
 M_constraint_AB12:55_l: - 10000 y_AB12:55 + x_AB12:55_l <= 0
 scale_constraint_AB12:55_f: 2.803 x_AB12:55_0 - 0.9 x_AB12:55_f >= 0
 scale_constraint_AB12:55_l: 1.367 x_AB12:55_0 - 0.9 x_AB12:55_l >= 0
 capacity_constraint_AC13:05: 3 x_AC13:05_f + x_AC13:05_l <= 187
 balance_constraint_AC13:05: 4.92 x_AC13:05_0 + 0.72 x_AC13:05_f 
   + 0.72 x_AC13:05_l <= 135.43
 M_constraint_AC13:05_0: - 10000 y_AC13:05 + x_AC13:05_0 <= 0
 M_constraint_AC13:05_f: - 10000 y_AC13:05 + x_AC13:05_f <= 0
 M_constraint_AC13:05_l: - 10000 y_AC13:05 + x_AC13:05_l <= 0
 scale_constraint_AC13:05_f: 2.803 x_AC13:05_0 - 0.9 x_AC13:05_f >= 0
 scale_constraint_AC13:05_l: 1.367 x_AC13:05_0 - 0.9 x_AC13:05_l >= 0
 capacity_constraint_AB13:55: 3 x_AB13:55_f + x_AB13:55_l <= 187
 balance_constraint_AB13:55: 4.92 x_AB13:55_0 + 0.72 x_AB13:55_f 
   + 0.72 x_AB13:55_l <= 170.64
 M_constraint_AB13:55_0: - 10000 y_AB13:55 + x_AB13:55_0 <= 0
 M_constraint_AB13:55_f: - 10000 y_AB13:55 + x_AB13:55_f <= 0
 M_constraint_AB13:55_l: - 10000 y_AB13:55 + x_AB13:55_l <= 0
 scale_constraint_AB13:55_f: 2.803 x_AB13:55_0 - 0.9 x_AB13:55_f >= 0
 scale_constraint_AB13:55_l: 1.367 x_AB13:55_0 - 0.9 x_AB13:55_l >= 0
 capacity_constraint_CA14:15: 3 x_CA14:15_f + x_CA14:15_l <= 187
 balance_constraint_CA14:15: 1.72 x_CA14:15_0 + 0.97 x_CA14:15_f 
   + 0.97 x_CA14:15_l <= 109.5
 M_constraint_CA14:15_0: - 10000 y_CA14:15 + x_CA14:15_0 <= 0
 M_constraint_CA14:15_f: - 10000 y_CA14:15 + x_CA14:15_f <= 0
 M_constraint_CA14:15_l: - 10000 y_CA14:15 + x_CA14:15_l <= 0
 scale_constraint_CA14:15_f: 2.826 x_CA14:15_0 - 1.2 x_CA14:15_f >= 0
 scale_constraint_CA14:15_l: 1.475 x_CA14:15_0 - 1.2 x_CA14:15_l >= 0
 capacity_constraint_CB14:15: 3 x_CB14:15_f + x_CB14:15_l <= 187
 balance_constraint_CB14:15: 1.72 x_CB14:15_0 + 0.97 x_CB14:15_f 
   + 0.97 x_CB14:15_l <= 39.64
 M_constraint_CB14:15_0: - 10000 y_CB14:15 + x_CB14:15_0 <= 0
 M_constraint_CB14:15_f: - 10000 y_CB14:15 + x_CB14:15_f <= 0
 M_constraint_CB14:15_l: - 10000 y_CB14:15 + x_CB14:15_l <= 0
 scale_constraint_CB14:15_f: 2.826 x_CB14:15_0 - 1.2 x_CB14:15_f >= 0
 scale_constraint_CB14:15_l: 1.475 x_CB14:15_0 - 1.2 x_CB14:15_l >= 0
 capacity_constraint_BA14:25: 3 x_BA14:25_f + x_BA14:25_l <= 187
 balance_constraint_BA14:25: 3.7 x_BA14:25_0 + 0.9 x_BA14:25_f 
   + 0.9 x_BA14:25_l <= 161.93
 M_constraint_BA14:25_0: - 10000 y_BA14:25 + x_BA14:25_0 <= 0
 M_constraint_BA14:25_f: - 10000 y_BA14:25 + x_BA14:25_f <= 0
 M_constraint_BA14:25_l: - 10000 y_BA14:25 + x_BA14:25_l <= 0
 scale_constraint_BA14:25_f: 3.079 x_BA14:25_0 - 2 x_BA14:25_f >= 0
 scale_constraint_BA14:25_l: 1.652 x_BA14:25_0 - 2 x_BA14:25_l >= 0
 capacity_constraint_BC14:25: 3 x_BC14:25_f + x_BC14:25_l <= 187
 balance_constraint_BC14:25: 3.7 x_BC14:25_0 + 0.9 x_BC14:25_f 
   + 0.9 x_BC14:25_l <= 11.07
 M_constraint_BC14:25_0: - 10000 y_BC14:25 + x_BC14:25_0 <= 0
 M_constraint_BC14:25_f: - 10000 y_BC14:25 + x_BC14:25_f <= 0
 M_constraint_BC14:25_l: - 10000 y_BC14:25 + x_BC14:25_l <= 0
 scale_constraint_BC14:25_f: 3.079 x_BC14:25_0 - 2 x_BC14:25_f >= 0
 scale_constraint_BC14:25_l: 1.652 x_BC14:25_0 - 2 x_BC14:25_l >= 0
 capacity_constraint_BA15:40: 3 x_BA15:40_f + x_BA15:40_l <= 187
 balance_constraint_BA15:40: 3.7 x_BA15:40_0 + 0.9 x_BA15:40_f 
   + 0.9 x_BA15:40_l <= 167.42
 M_constraint_BA15:40_0: - 10000 y_BA15:40 + x_BA15:40_0 <= 0
 M_constraint_BA15:40_f: - 10000 y_BA15:40 + x_BA15:40_f <= 0
 M_constraint_BA15:40_l: - 10000 y_BA15:40 + x_BA15:40_l <= 0
 scale_constraint_BA15:40_f: 3.079 x_BA15:40_0 - 2 x_BA15:40_f >= 0
 scale_constraint_BA15:40_l: 1.652 x_BA15:40_0 - 2 x_BA15:40_l >= 0
 capacity_constraint_BC15:40: 3 x_BC15:40_f + x_BC15:40_l <= 187
 balance_constraint_BC15:40: 3.7 x_BC15:40_0 + 0.9 x_BC15:40_f 
   + 0.9 x_BC15:40_l <= 14.96
 M_constraint_BC15:40_0: - 10000 y_BC15:40 + x_BC15:40_0 <= 0
 M_constraint_BC15:40_f: - 10000 y_BC15:40 + x_BC15:40_f <= 0
 M_constraint_BC15:40_l: - 10000 y_BC15:40 + x_BC15:40_l <= 0
 scale_constraint_BC15:40_f: 3.079 x_BC15:40_0 - 2 x_BC15:40_f >= 0
 scale_constraint_BC15:40_l: 1.652 x_BC15:40_0 - 2 x_BC15:40_l >= 0
 balance_constraint_A: y_AB11:20 + y_AB12:40 + y_AB12:55 + y_AC13:05 
   + y_AB13:55 - y_CA7:40 - y_BA9:05 - y_BA12:25 - y_CA14:15 - y_BA14:25 
   - y_BA15:40 = 0
 balance_constraint_B: y_BA9:05 + y_BC9:05 + y_BC11:20 + y_BA12:25 
   + y_BC12:25 + y_BA14:25 + y_BC14:25 + y_BA15:40 + y_BC15:40 - y_CB7:40 
   - y_CB10:45 - y_AB11:20 - y_CB12:35 - y_AB12:40 - y_AB12:55 - y_AB13:55 
   - y_CB14:15 = 0
 balance_constraint_C: y_CA7:40 + y_CB7:40 + y_CB10:45 + y_CB12:35 
   + y_CA14:15 + y_CB14:15 - y_BC9:05 - y_BC11:20 - y_BC12:25 - y_AC13:05 
   - y_BC14:25 - y_BC15:40 = 0
 cardinality_constraint: y_CA7:40 + y_CB7:40 + y_BA9:05 + y_BC9:05 
   + y_CB10:45 + y_AB11:20 + y_BC11:20 + y_BA12:25 + y_BC12:25 + y_CB12:35 
   + y_AB12:40 + y_AB12:55 + y_AC13:05 + y_AB13:55 + y_CA14:15 + y_CB14:15 
   + y_BA14:25 + y_BC14:25 + y_BA15:40 + y_BC15:40 <= 5
Binaries
 y_CA7:40  y_CB7:40  y_BA9:05  y_BC9:05  y_CB10:45  y_AB11:20  y_BC11:20  
 y_BA12:25  y_BC12:25  y_CB12:35  y_AB12:40  y_AB12:55  y_AC13:05  
 y_AB13:55  y_CA14:15  y_CB14:15  y_BA14:25  y_BC14:25  y_BA15:40  
 y_BC15:40  
END

